S = 7;
start = [|0,0,0,0,0,32,0,0,0,0,0,28,0,0,0,0,9,0,0,0,0,0,0,0,43,0,0,0,0,39,23,0,0,0,37,0,0,0,0,0,19,0,0,0,0,0,0,0,0|
0,0,0,0,0,0,0,0,0,0,0,0,0,0,45,0,0,0,0,0,0,0,0,0,0,0,0,0,0,28,0,0,0,8,0,0,0,0,0,0,0,0,0,24,0,0,0,0,0|
18,0,0,0,0,0,0,26,0,0,0,0,0,0,0,0,0,0,0,0,0,0,0,13,0,0,0,0,29,0,0,0,0,9,31,0,0,0,7,0,0,0,0,0,0,0,0,0,0|
0,0,0,0,0,0,0,0,0,0,0,0,0,0,0,0,0,0,0,0,0,0,33,0,0,0,0,0,0,0,0,0,0,41,0,0,0,0,28,0,0,0,0,0,0,0,18,0,0|
0,44,0,0,17,0,0,0,15,1,0,0,23,0,0,0,0,0,0,16,0,0,0,0,0,0,0,0,0,0,0,0,0,0,0,0,0,24,0,0,40,0,0,0,41,0,0,0,0|
0,0,0,0,0,15,0,0,0,0,0,0,25,0,32,0,0,0,0,0,0,0,0,0,6,0,0,0,18,0,0,0,0,0,0,5,0,0,0,41,0,26,0,0,0,0,0,31,0|
0,0,0,45,0,0,43,0,0,0,0,37,0,0,0,0,0,0,0,0,14,7,42,0,9,0,0,46,49,0,0,0,0,0,0,0,0,32,0,0,0,0,0,0,28,36,34,0,0|
17,0,0,24,0,0,0,10,0,0,29,0,0,8,0,23,0,28,0,47,0,0,0,0,0,49,0,0,0,0,0,0,0,0,0,0,0,0,0,0,0,13,0,0,12,0,0,35,0|
0,19,0,0,0,0,8,0,0,0,0,0,26,0,20,0,0,42,0,0,0,0,0,0,0,0,16,0,0,0,0,0,0,0,0,0,0,0,0,0,0,0,0,0,0,0,0,0,0|
5,0,0,0,0,0,0,0,0,0,35,0,0,0,0,0,15,0,0,32,0,9,0,0,0,0,0,0,0,45,0,0,0,0,0,0,0,0,38,0,0,0,0,0,0,0,31,0,0|
0,0,0,0,0,0,0,0,45,32,0,0,0,22,0,0,35,0,0,0,0,0,0,0,0,0,0,0,0,0,0,34,0,0,18,0,0,0,0,0,0,16,0,0,38,0,0,37,0|
0,0,0,0,0,0,22,34,0,0,0,0,0,0,0,0,0,0,0,0,1,0,0,35,0,0,0,0,31,0,0,0,43,0,0,0,0,0,0,8,0,0,19,0,0,0,0,15,13|
0,0,0,0,0,0,0,0,0,0,0,0,9,0,0,0,0,0,0,0,0,0,0,0,0,24,0,0,0,0,0,0,0,0,0,31,0,0,0,0,0,0,28,0,0,0,0,0,0|
0,0,0,0,0,0,0,0,0,0,0,0,0,0,19,0,34,45,0,0,0,0,0,0,0,32,47,0,0,0,0,0,0,0,4,0,0,0,2,0,0,0,0,16,0,0,0,0,0|
0,0,0,0,0,0,0,0,3,0,0,0,0,15,0,0,20,0,0,0,0,0,5,0,0,34,0,0,39,0,0,0,0,0,44,0,0,0,14,0,0,0,9,0,0,0,0,0,40|
0,0,0,0,35,0,0,0,0,0,0,0,0,18,0,44,0,0,0,0,0,0,0,0,0,0,0,0,0,0,0,0,0,21,0,0,24,30,0,0,0,0,27,0,0,0,0,0,0|
0,0,14,0,0,0,0,0,0,19,0,44,0,0,0,0,0,0,0,0,0,0,48,0,0,0,0,0,0,0,0,0,0,23,0,0,0,0,0,0,0,0,0,0,0,0,0,24,0|
0,0,0,0,0,0,0,14,0,0,0,0,0,0,0,0,0,0,0,0,0,0,0,0,35,0,2,0,0,0,0,0,0,0,0,0,0,0,0,0,0,0,0,0,1,23,0,0,37|
0,0,0,23,0,6,0,49,12,0,0,0,0,0,35,0,47,0,0,0,0,0,0,0,31,0,0,24,0,0,29,0,0,0,0,16,0,0,0,0,0,0,10,5,0,0,0,0,0|
0,0,0,0,0,20,0,0,0,0,0,0,0,0,12,0,0,0,18,22,0,0,0,45,21,0,0,0,0,14,0,3,0,0,0,0,0,0,0,0,0,0,0,7,0,0,0,42,6|
0,45,0,0,0,0,0,0,0,0,0,0,0,0,0,0,0,0,0,0,0,0,0,0,0,0,0,0,1,0,0,0,0,28,0,4,0,0,0,2,0,0,0,0,0,0,48,0,0|
0,0,0,49,0,0,0,0,0,0,0,24,17,14,0,7,19,0,0,0,0,0,0,0,0,0,0,5,0,0,0,0,0,0,0,0,0,1,35,0,0,0,0,0,0,44,0,0,0|
0,0,0,0,38,0,16,0,19,0,0,0,0,0,25,0,40,0,0,0,0,0,0,0,0,0,0,0,0,0,0,0,0,39,0,0,0,4,0,0,0,0,0,11,0,0,0,0,0|
0,0,0,0,0,47,0,0,0,0,0,0,0,0,23,0,0,0,0,0,0,0,19,0,0,0,0,0,0,0,0,0,0,37,0,0,46,0,0,0,0,0,0,20,0,0,0,0,0|
26,0,0,0,0,0,0,0,0,0,0,8,0,0,28,0,0,0,0,0,0,0,0,20,0,0,0,0,33,0,0,0,0,0,0,0,0,0,0,43,24,0,30,0,39,17,0,0,0|
0,0,0,0,19,0,0,0,0,18,0,0,0,0,0,10,44,0,0,0,0,0,14,0,0,0,0,0,0,0,0,0,0,47,0,0,0,0,0,0,0,0,0,0,42,0,0,25,0|
45,39,0,0,13,46,0,0,0,0,0,33,2,0,0,0,0,0,0,0,0,0,0,0,47,0,0,0,32,0,0,14,0,38,21,0,0,0,0,0,0,0,0,0,0,0,0,0,0|
0,0,22,0,0,0,0,0,0,0,40,34,0,0,0,43,0,0,0,0,0,0,0,0,0,0,0,48,0,0,0,0,30,0,0,0,0,0,0,0,0,0,0,0,0,4,0,0,0|
0,0,0,0,0,0,0,0,14,0,0,0,0,0,0,0,0,0,0,35,22,0,0,0,0,0,0,0,0,0,0,0,0,0,0,0,49,0,0,40,0,0,0,0,0,0,38,0,47|
0,0,19,0,0,0,0,0,6,0,0,0,0,0,24,0,0,0,0,25,0,0,0,43,0,0,0,0,0,0,1,0,0,42,0,0,0,0,0,0,0,0,0,0,16,0,0,0,0|
0,0,0,0,15,0,0,0,0,27,0,0,8,0,0,0,0,0,0,0,0,0,13,0,0,40,0,0,0,0,12,0,0,0,47,0,0,0,0,0,0,0,0,0,0,0,0,0,43|
0,0,0,0,0,0,7,0,0,0,0,36,0,0,0,0,0,0,0,33,0,0,0,0,1,0,6,0,0,0,0,44,23,0,14,0,0,39,0,0,0,0,0,0,24,0,0,0,0|
25,0,35,0,0,0,0,33,0,30,0,0,0,0,0,0,0,0,28,0,0,0,0,0,0,0,0,0,38,0,0,0,0,0,0,0,0,0,0,0,0,0,0,0,13,0,0,0,0|
0,0,0,0,0,0,0,0,0,0,0,0,0,31,29,0,0,0,0,0,0,0,36,0,0,0,0,0,0,0,0,0,0,0,0,0,0,0,13,0,43,0,0,0,40,0,0,0,0|
0,0,2,0,49,0,0,0,0,0,0,0,0,0,0,0,0,0,0,9,0,0,0,0,0,0,0,0,0,0,0,0,0,36,0,0,0,0,6,0,0,0,0,0,18,0,0,0,0|
0,0,30,0,0,0,18,0,0,0,27,14,0,0,0,0,0,0,0,40,0,35,0,0,0,0,0,0,0,0,0,0,0,0,0,0,0,0,5,0,0,0,0,0,0,0,0,0,0|
0,0,0,0,0,0,0,0,0,0,0,7,35,30,0,0,0,43,0,0,47,0,0,0,0,0,0,0,26,0,27,0,0,0,0,0,0,0,0,0,0,40,0,0,0,0,0,0,0|
0,0,0,13,0,0,0,0,0,0,0,19,0,24,0,0,0,0,0,36,0,0,0,0,0,0,0,0,0,0,39,0,0,0,0,0,37,49,17,0,0,0,0,0,0,0,0,0,0|
0,0,0,0,31,0,4,0,0,0,0,0,0,0,0,0,0,0,0,5,0,0,0,0,0,0,0,0,0,0,0,42,0,0,0,0,0,0,0,0,0,0,0,0,14,0,0,29,0|
0,9,45,0,0,0,0,0,48,0,0,20,0,0,0,0,0,0,0,49,0,0,0,0,0,2,0,0,0,0,0,0,0,35,0,0,0,0,0,0,0,0,0,0,34,0,16,0,0|
0,0,0,0,0,0,0,0,0,0,0,0,0,0,0,0,0,0,35,0,0,0,0,32,0,0,38,0,0,0,0,0,0,0,0,0,0,0,0,33,0,24,0,39,0,0,0,0,0|
0,0,0,0,0,0,0,0,0,0,0,45,0,0,0,9,17,0,0,0,0,0,0,0,0,0,0,0,0,0,0,0,0,0,0,0,0,0,0,0,0,0,0,0,0,0,0,0,0|
0,0,0,0,0,0,0,0,0,7,24,0,0,0,0,0,33,0,0,28,23,0,0,0,40,0,0,0,0,37,0,0,0,0,0,42,0,31,0,0,0,0,0,0,0,0,12,0,0|
0,0,28,0,0,0,0,0,0,0,0,49,18,0,0,0,0,9,0,0,0,0,25,0,0,0,0,0,0,0,0,0,0,0,0,17,36,0,0,30,0,0,0,0,0,0,0,0,0|
0,35,0,0,0,0,0,0,0,0,0,0,0,0,0,0,0,0,0,0,18,0,43,0,36,0,0,0,0,0,0,0,0,0,0,24,0,0,0,0,0,23,40,0,0,0,0,0,0|
0,0,0,0,0,22,0,0,0,0,0,0,44,0,1,0,0,29,0,0,0,0,0,0,19,0,0,0,25,48,0,0,0,49,0,0,27,0,0,0,0,0,0,0,0,0,0,5,0|
0,0,0,0,24,0,0,0,42,0,0,9,0,0,0,0,0,0,0,0,0,47,0,0,0,0,0,0,0,0,0,0,0,0,0,0,0,0,4,0,0,0,0,0,0,0,0,0,25|
0,25,0,0,0,0,0,0,0,0,14,0,0,0,0,0,0,0,0,0,0,0,0,0,0,0,0,0,0,0,0,0,0,0,7,0,0,0,0,15,0,39,0,0,0,0,0,0,36|
0,0,0,0,0,0,0,0,0,0,0,0,0,0,0,0,0,0,0,46,0,0,0,0,0,0,0,0,0,1,0,0,34,0,0,7,0,0,0,0,0,0,0,0,35,0,0,0,0|];